c Generated map
c Size: 8 * 8, weights in range: 1 to 10, walls: True, with ratio 0.05
c dim 5 of 9
c
p sp 64 100
c graph contains 64 nodes and 100 arcs
c
a 1 9 2
a 9 1 2
a 1 2 9
a 2 1 9
a 2 10 3
a 10 2 3
a 2 3 3
a 3 2 3
a 3 11 10
a 11 3 10
a 3 4 2
a 4 3 2
a 4 12 6
a 12 4 6
a 4 5 8
a 5 4 8
a 5 13 1
a 13 5 1
a 5 6 5
a 6 5 5
a 6 7 5
a 7 6 5
a 7 15 8
a 15 7 8
a 7 8 9
a 8 7 9
a 8 16 6
a 16 8 6
a 9 17 8
a 17 9 8
a 9 10 4
a 10 9 4
a 10 18 8
a 18 10 8
a 10 11 6
a 11 10 6
a 11 19 7
a 19 11 7
a 11 12 7
a 12 11 7
a 12 20 1
a 20 12 1
a 12 13 7
a 13 12 7
a 13 21 5
a 21 13 5
a 15 16 10
a 16 15 10
a 16 24 1
a 24 16 1
a 17 25 7
a 25 17 7
a 17 18 2
a 18 17 2
a 18 26 7
a 26 18 7
a 18 19 1
a 19 18 1
a 19 27 8
a 27 19 8
a 19 20 3
a 20 19 3
a 20 28 3
a 28 20 3
a 20 21 4
a 21 20 4
a 21 29 6
a 29 21 6
a 21 22 4
a 22 21 4
a 22 30 6
a 30 22 6
a 24 32 5
a 32 24 5
a 25 33 3
a 33 25 3
a 25 26 1
a 26 25 1
a 26 34 9
a 34 26 9
a 26 27 3
a 27 26 3
a 27 35 4
a 35 27 4
a 27 28 7
a 28 27 7
a 28 29 5
a 29 28 5
a 29 37 9
a 37 29 9
a 29 30 10
a 30 29 10
a 30 38 1
a 38 30 1
a 30 31 6
a 31 30 6
a 31 39 4
a 39 31 4
a 31 32 4
a 32 31 4
a 32 40 4
a 40 32 4
a 33 41 7
a 41 33 7
a 33 34 9
a 34 33 9
a 34 42 8
a 42 34 8
a 34 35 10
a 35 34 10
a 35 43 5
a 43 35 5
a 37 45 3
a 45 37 3
a 37 38 9
a 38 37 9
a 38 46 10
a 46 38 10
a 38 39 4
a 39 38 4
a 39 47 10
a 47 39 10
a 39 40 1
a 40 39 1
a 40 48 4
a 48 40 4
a 41 49 2
a 49 41 2
a 41 42 5
a 42 41 5
a 42 50 9
a 50 42 9
a 42 43 8
a 43 42 8
a 43 51 10
a 51 43 10
a 43 44 9
a 44 43 9
a 44 52 9
a 52 44 9
a 44 45 4
a 45 44 4
a 45 53 10
a 53 45 10
a 45 46 9
a 46 45 9
a 46 54 5
a 54 46 5
a 46 47 1
a 47 46 1
a 47 55 2
a 55 47 2
a 47 48 10
a 48 47 10
a 48 56 7
a 56 48 7
a 49 57 7
a 57 49 7
a 49 50 3
a 50 49 3
a 50 58 7
a 58 50 7
a 50 51 10
a 51 50 10
a 51 59 8
a 59 51 8
a 51 52 1
a 52 51 1
a 52 60 9
a 60 52 9
a 52 53 9
a 53 52 9
a 53 61 1
a 61 53 1
a 53 54 7
a 54 53 7
a 54 62 7
a 62 54 7
a 54 55 5
a 55 54 5
a 55 63 8
a 63 55 8
a 55 56 10
a 56 55 10
a 56 64 6
a 64 56 6
a 57 58 4
a 58 57 4
a 58 59 4
a 59 58 4
a 59 60 3
a 60 59 3
a 60 61 9
a 61 60 9
a 61 62 5
a 62 61 5
a 62 63 9
a 63 62 9
a 63 64 10
a 64 63 10
